ACTORES = {Actor0, Actor1, Actor2, Actor3, Actor4};
Escenas =[|0,0,1,0,1,1,0,0,0,1,1,0,0,1,0,15
		  |1,0,1,1,1,1,0,0,1,1,1,0,0,1,1,14
		  |1,1,1,1,0,0,1,0,0,1,0,0,1,0,1,3
		  |1,0,0,0,0,1,1,0,0,1,1,0,1,1,1,7
		  |1,1,0,0,0,0,0,1,1,1,1,1,1,1,1,14
		  |];
Duracion=[4, 4, 3, 5, 4, 4, 1, 2, 1, 4, 3, 2, 4, 4, 3];
Disponibilidad = [|Actor0, 46
				  |Actor1, 27
				  |Actor2, 1
				  |Actor3, 37
				  |Actor4, 35|];
Evitar = [|Actor0, Actor4
		  |Actor2, Actor4
		  |Actor3, Actor4
		  |Actor1, Actor3
		  |Actor1, Actor2
		  |Actor2, Actor3
		  |Actor0, Actor1
		  |Actor0, Actor3
		  |Actor1, Actor4|];
